NAME : X-n176-k26
COMMENT : "Generated by Uchoa, Pecin, Pessoa, Poggi, Subramanian, and Vidal (2013)"
TYPE : CVRP
DIMENSION : 176
EDGE_WEIGHT_TYPE : EUC_2D
CAPACITY : 142
NODE_COORD_SECTION
1 0 0
2 628 103
3 291 573
4 129 447
5 973 643
6 830 868
7 398 563
8 731 423
9 201 995
10 167 174
11 13 605
12 446 262
13 229 774
14 740 231
15 21 546
16 224 615
17 605 837
18 473 759
19 758 880
20 93 900
21 580 935
22 622 494
23 513 236
24 659 797
25 606 204
26 267 688
27 28 888
28 606 754
29 841 676
30 823 611
31 1 247
32 195 486
33 644 771
34 524 45
35 581 366
36 769 471
37 78 800
38 940 790
39 867 441
40 243 453
41 410 464
42 465 161
43 417 304
44 616 944
45 609 356
46 822 489
47 738 932
48 462 718
49 847 459
50 563 619
51 792 940
52 434 318
53 1000 647
54 566 413
55 492 83
56 764 550
57 145 182
58 540 249
59 208 760
60 759 988
61 66 221
62 520 521
63 260 508
64 307 468
65 747 308
66 370 136
67 421 505
68 373 597
69 876 881
70 281 18
71 419 69
72 502 242
73 343 764
74 275 610
75 434 161
76 314 40
77 744 675
78 698 364
79 600 881
80 9 893
81 875 724
82 728 253
83 502 969
84 867 464
85 237 907
86 868 263
87 680 306
88 740 688
89 534 615
90 450 898
91 126 415
92 565 260
93 172 126
94 137 674
95 789 958
96 853 147
97 762 111
98 416 626
99 63 237
100 194 75
101 616 133
102 104 804
103 304 699
104 758 40
105 249 141
106 848 770
107 316 426
108 791 803
109 884 980
110 618 107
111 858 644
112 116 388
113 939 880
114 217 912
115 138 217
116 639 588
117 542 965
118 775 294
119 325 154
120 839 459
121 21 751
122 248 883
123 34 101
124 274 824
125 408 641
126 923 320
127 838 846
128 83 772
129 938 432
130 913 766
131 758 816
132 481 156
133 548 809
134 660 393
135 773 579
136 261 97
137 380 849
138 433 893
139 312 347
140 295 480
141 277 519
142 833 970
143 760 470
144 33 455
145 289 176
146 283 845
147 953 937
148 2 939
149 164 71
150 539 756
151 679 880
152 309 113
153 857 842
154 184 455
155 181 70
156 136 928
157 23 17
158 127 710
159 657 422
160 248 593
161 525 519
162 109 805
163 754 487
164 484 90
165 923 157
166 195 38
167 74 961
168 261 663
169 984 135
170 281 227
171 673 176
172 78 322
173 177 543
174 590 199
175 559 609
176 9 343
PICKUP_AND_DELIVERY_SECTION
1 0 0 1000000000 0 0 0
2 0 0 1000000000 0 0 94
3 0 0 1000000000 0 65 0
4 0 0 1000000000 0 0 69
5 0 0 1000000000 0 89 0
6 0 0 1000000000 0 0 74
7 0 0 1000000000 0 95 0
8 0 0 1000000000 0 0 87
9 0 0 1000000000 0 96 0
10 0 0 1000000000 0 0 56
11 0 0 1000000000 0 94 0
12 0 0 1000000000 0 0 79
13 0 0 1000000000 0 91 0
14 0 0 1000000000 0 0 75
15 0 0 1000000000 0 54 0
16 0 0 1000000000 0 0 97
17 0 0 1000000000 0 93 0
18 0 0 1000000000 0 0 81
19 0 0 1000000000 0 100 0
20 0 0 1000000000 0 0 75
21 0 0 1000000000 0 56 0
22 0 0 1000000000 0 0 71
23 0 0 1000000000 0 100 0
24 0 0 1000000000 0 0 54
25 0 0 1000000000 0 100 0
26 0 0 1000000000 0 0 62
27 0 0 1000000000 0 51 0
28 0 0 1000000000 0 0 58
29 0 0 1000000000 0 79 0
30 0 0 1000000000 0 0 65
31 0 0 1000000000 0 52 0
32 0 0 1000000000 0 0 65
33 0 0 1000000000 0 65 0
34 0 0 1000000000 0 0 59
35 0 0 1000000000 0 77 0
36 0 0 1000000000 0 0 89
37 0 0 1000000000 0 66 0
38 0 0 1000000000 0 0 71
39 0 0 1000000000 0 10 0
40 0 0 1000000000 0 0 10
41 0 0 1000000000 0 1 0
42 0 0 1000000000 0 0 9
43 0 0 1000000000 0 4 0
44 0 0 1000000000 0 0 9
45 0 0 1000000000 0 8 0
46 0 0 1000000000 0 0 4
47 0 0 1000000000 0 8 0
48 0 0 1000000000 0 0 7
49 0 0 1000000000 0 9 0
50 0 0 1000000000 0 0 10
51 0 0 1000000000 0 6 0
52 0 0 1000000000 0 0 2
53 0 0 1000000000 0 6 0
54 0 0 1000000000 0 0 9
55 0 0 1000000000 0 5 0
56 0 0 1000000000 0 0 3
57 0 0 1000000000 0 4 0
58 0 0 1000000000 0 0 5
59 0 0 1000000000 0 6 0
60 0 0 1000000000 0 0 6
61 0 0 1000000000 0 6 0
62 0 0 1000000000 0 0 1
63 0 0 1000000000 0 8 0
64 0 0 1000000000 0 0 9
65 0 0 1000000000 0 6 0
66 0 0 1000000000 0 0 5
67 0 0 1000000000 0 8 0
68 0 0 1000000000 0 0 5
69 0 0 1000000000 0 9 0
70 0 0 1000000000 0 0 2
71 0 0 1000000000 0 3 0
72 0 0 1000000000 0 0 9
73 0 0 1000000000 0 9 0
74 0 0 1000000000 0 0 4
75 0 0 1000000000 0 2 0
76 0 0 1000000000 0 0 2
77 0 0 1000000000 0 10 0
78 0 0 1000000000 0 0 9
79 0 0 1000000000 0 9 0
80 0 0 1000000000 0 0 8
81 0 0 1000000000 0 8 0
82 0 0 1000000000 0 0 9
83 0 0 1000000000 0 9 0
84 0 0 1000000000 0 0 6
85 0 0 1000000000 0 6 0
86 0 0 1000000000 0 0 8
87 0 0 1000000000 0 9 0
88 0 0 1000000000 0 0 7
89 0 0 1000000000 0 10 0
90 0 0 1000000000 0 0 10
91 0 0 1000000000 0 1 0
92 0 0 1000000000 0 0 7
93 0 0 1000000000 0 4 0
94 0 0 1000000000 0 0 1
95 0 0 1000000000 0 6 0
96 0 0 1000000000 0 0 5
97 0 0 1000000000 0 5 0
98 0 0 1000000000 0 0 8
99 0 0 1000000000 0 4 0
100 0 0 1000000000 0 0 6
101 0 0 1000000000 0 7 0
102 0 0 1000000000 0 0 10
103 0 0 1000000000 0 10 0
104 0 0 1000000000 0 0 6
105 0 0 1000000000 0 6 0
106 0 0 1000000000 0 0 8
107 0 0 1000000000 0 7 0
108 0 0 1000000000 0 0 8
109 0 0 1000000000 0 8 0
110 0 0 1000000000 0 0 2
111 0 0 1000000000 0 8 0
112 0 0 1000000000 0 0 7
113 0 0 1000000000 0 9 0
114 0 0 1000000000 0 0 6
115 0 0 1000000000 0 10 0
116 0 0 1000000000 0 0 2
117 0 0 1000000000 0 4 0
118 0 0 1000000000 0 0 3
119 0 0 1000000000 0 2 0
120 0 0 1000000000 0 0 5
121 0 0 1000000000 0 1 0
122 0 0 1000000000 0 0 1
123 0 0 1000000000 0 7 0
124 0 0 1000000000 0 0 6
125 0 0 1000000000 0 4 0
126 0 0 1000000000 0 0 5
127 0 0 1000000000 0 9 0
128 0 0 1000000000 0 0 4
129 0 0 1000000000 0 2 0
130 0 0 1000000000 0 0 6
131 0 0 1000000000 0 4 0
132 0 0 1000000000 0 0 4
133 0 0 1000000000 0 9 0
134 0 0 1000000000 0 0 1
135 0 0 1000000000 0 3 0
136 0 0 1000000000 0 0 4
137 0 0 1000000000 0 4 0
138 0 0 1000000000 0 0 4
139 0 0 1000000000 0 9 0
140 0 0 1000000000 0 0 9
141 0 0 1000000000 0 3 0
142 0 0 1000000000 0 0 6
143 0 0 1000000000 0 6 0
144 0 0 1000000000 0 0 4
145 0 0 1000000000 0 4 0
146 0 0 1000000000 0 0 3
147 0 0 1000000000 0 3 0
148 0 0 1000000000 0 0 1
149 0 0 1000000000 0 3 0
150 0 0 1000000000 0 0 8
151 0 0 1000000000 0 9 0
152 0 0 1000000000 0 0 2
153 0 0 1000000000 0 9 0
154 0 0 1000000000 0 0 1
155 0 0 1000000000 0 9 0
156 0 0 1000000000 0 0 7
157 0 0 1000000000 0 8 0
158 0 0 1000000000 0 0 7
159 0 0 1000000000 0 7 0
160 0 0 1000000000 0 0 8
161 0 0 1000000000 0 9 0
162 0 0 1000000000 0 0 10
163 0 0 1000000000 0 3 0
164 0 0 1000000000 0 0 2
165 0 0 1000000000 0 9 0
166 0 0 1000000000 0 0 8
167 0 0 1000000000 0 6 0
168 0 0 1000000000 0 0 7
169 0 0 1000000000 0 7 0
170 0 0 1000000000 0 0 5
171 0 0 1000000000 0 3 0
172 0 0 1000000000 0 0 9
173 0 0 1000000000 0 9 0
174 0 0 1000000000 0 0 4
175 0 0 1000000000 0 7 0
176 0 0 1000000000 0 0 4
